nN = 7;
nR = 15;
nH = 1;

a = [[12, 18, 18, 17, 23, 12, 6, 11, 14, 6, 16, 9, 18, 9, 6], [24, 19, 11, 20, 18, 22, 25, 22, 9, 10, 8, 17, 18, 23, 20], [23, 23, 20, 12, 25, 13, 16, 11, 11, 16, 15, 9, 7, 11, 18], [21, 15, 19, 7, 7, 20, 22, 8, 10, 23, 15, 10, 13, 20, 17], [12, 7, 8, 24, 22, 9, 14, 14, 22, 11, 22, 10, 10, 14, 23], [9, 10, 15, 7, 22, 5, 6, 19, 19, 9, 9, 16, 15, 6, 24], [15, 25, 18, 13, 17, 20, 7, 11, 6, 20, 25, 22, 24, 24, 25]];
c = [[[0, 0, 0, 0, 0, 0, 0, 0, 0, 0, 0, 0, 0, 0, 0], [41, 36, 50, 30, 35, 47, 44, 40, 49, 44, 30, 40, 31, 43, 46], [32, 44, 42, 30, 46, 49, 32, 32, 30, 35, 41, 48, 48, 40, 31], [39, 31, 42, 32, 35, 37, 49, 33, 49, 43, 30, 43, 47, 40, 34], [32, 37, 38, 47, 37, 45, 47, 33, 38, 49, 43, 42, 47, 47, 42], [44, 48, 36, 48, 31, 32, 30, 33, 48, 33, 46, 32, 47, 31, 31], [46, 50, 41, 47, 43, 32, 38, 44, 30, 45, 38, 44, 44, 35, 30]], [[0, 0, 0, 0, 0, 0, 0, 0, 0, 0, 0, 0, 0, 0, 0], [0, 0, 0, 0, 0, 0, 0, 0, 0, 0, 0, 0, 0, 0, 0], [48, 42, 30, 44, 47, 33, 46, 42, 47, 42, 36, 30, 32, 34, 32], [37, 37, 34, 42, 47, 43, 31, 38, 31, 38, 30, 31, 35, 48, 35], [38, 37, 34, 46, 32, 31, 45, 38, 44, 45, 46, 41, 34, 37, 31], [35, 32, 50, 38, 30, 47, 43, 45, 39, 42, 50, 30, 49, 37, 36], [40, 42, 48, 40, 30, 42, 44, 40, 37, 50, 36, 33, 33, 37, 34]], [[0, 0, 0, 0, 0, 0, 0, 0, 0, 0, 0, 0, 0, 0, 0], [0, 0, 0, 0, 0, 0, 0, 0, 0, 0, 0, 0, 0, 0, 0], [0, 0, 0, 0, 0, 0, 0, 0, 0, 0, 0, 0, 0, 0, 0], [33, 45, 40, 45, 39, 35, 41, 45, 48, 41, 37, 32, 42, 47, 44], [31, 40, 49, 44, 32, 47, 32, 34, 30, 48, 44, 32, 40, 43, 40], [43, 41, 40, 45, 32, 44, 42, 39, 42, 31, 30, 31, 49, 46, 45], [46, 50, 46, 41, 34, 43, 32, 46, 40, 48, 38, 30, 32, 36, 44]], [[0, 0, 0, 0, 0, 0, 0, 0, 0, 0, 0, 0, 0, 0, 0], [0, 0, 0, 0, 0, 0, 0, 0, 0, 0, 0, 0, 0, 0, 0], [0, 0, 0, 0, 0, 0, 0, 0, 0, 0, 0, 0, 0, 0, 0], [0, 0, 0, 0, 0, 0, 0, 0, 0, 0, 0, 0, 0, 0, 0], [35, 33, 40, 47, 47, 30, 31, 42, 41, 50, 50, 43, 47, 43, 32], [41, 30, 39, 32, 49, 37, 40, 43, 49, 36, 47, 42, 44, 46, 43], [49, 32, 45, 33, 47, 42, 36, 37, 30, 36, 46, 38, 38, 50, 33]], [[0, 0, 0, 0, 0, 0, 0, 0, 0, 0, 0, 0, 0, 0, 0], [0, 0, 0, 0, 0, 0, 0, 0, 0, 0, 0, 0, 0, 0, 0], [0, 0, 0, 0, 0, 0, 0, 0, 0, 0, 0, 0, 0, 0, 0], [0, 0, 0, 0, 0, 0, 0, 0, 0, 0, 0, 0, 0, 0, 0], [0, 0, 0, 0, 0, 0, 0, 0, 0, 0, 0, 0, 0, 0, 0], [30, 43, 30, 49, 42, 41, 41, 38, 43, 30, 37, 41, 45, 34, 39], [50, 38, 30, 32, 33, 50, 36, 44, 30, 45, 31, 33, 46, 48, 47]], [[0, 0, 0, 0, 0, 0, 0, 0, 0, 0, 0, 0, 0, 0, 0], [0, 0, 0, 0, 0, 0, 0, 0, 0, 0, 0, 0, 0, 0, 0], [0, 0, 0, 0, 0, 0, 0, 0, 0, 0, 0, 0, 0, 0, 0], [0, 0, 0, 0, 0, 0, 0, 0, 0, 0, 0, 0, 0, 0, 0], [0, 0, 0, 0, 0, 0, 0, 0, 0, 0, 0, 0, 0, 0, 0], [0, 0, 0, 0, 0, 0, 0, 0, 0, 0, 0, 0, 0, 0, 0], [49, 50, 37, 45, 47, 31, 31, 39, 35, 30, 40, 38, 31, 32, 41]], [[0, 0, 0, 0, 0, 0, 0, 0, 0, 0, 0, 0, 0, 0, 0], [0, 0, 0, 0, 0, 0, 0, 0, 0, 0, 0, 0, 0, 0, 0], [0, 0, 0, 0, 0, 0, 0, 0, 0, 0, 0, 0, 0, 0, 0], [0, 0, 0, 0, 0, 0, 0, 0, 0, 0, 0, 0, 0, 0, 0], [0, 0, 0, 0, 0, 0, 0, 0, 0, 0, 0, 0, 0, 0, 0], [0, 0, 0, 0, 0, 0, 0, 0, 0, 0, 0, 0, 0, 0, 0], [0, 0, 0, 0, 0, 0, 0, 0, 0, 0, 0, 0, 0, 0, 0]]];
Q = [[30], [29], [27], [23], [28], [29], [25]];

q = [[[20], [6], [25], [20], [21], [18], [24], [20], [8], [21], [7], [22], [16], [24], [7]], [[9], [9], [21], [20], [17], [15], [22], [24], [23], [8], [19], [21], [11], [18], [10]], [[20], [14], [25], [12], [8], [9], [22], [17], [21], [7], [22], [16], [14], [13], [9]], [[17], [14], [11], [23], [13], [18], [16], [16], [12], [7], [13], [7], [8], [12], [12]], [[22], [10], [16], [7], [12], [25], [7], [6], [21], [16], [24], [12], [19], [17], [25]], [[22], [24], [24], [21], [23], [6], [11], [22], [14], [11], [9], [16], [9], [18], [21]], [[19], [10], [21], [20], [11], [5], [11], [14], [16], [22], [25], [5], [10], [18], [6]]];
p = [0.67, 0.1, 0.18, 0.69, 0.01, 0.31, 0.82, 0.25, 0.04, 0.41, 0.11, 0.97, 0.95, 0.47, 0.07];
